
Gurobi 7.0.2 (win64, Python) logging started 06/26/17 15:08:23


Gurobi 7.0.2 (win64, Python) logging started 06/26/17 15:08:42


Gurobi 7.0.2 (win64, Python) logging started 06/26/17 15:09:00


Gurobi 7.0.2 (win64, Python) logging started 06/26/17 15:12:53


Gurobi 7.0.2 (win64, Python) logging started 06/26/17 15:14:47


Gurobi 7.0.2 (win64, Python) logging started 06/26/17 15:20:34


Gurobi 7.0.2 (win64, Python) logging started 06/26/17 15:22:37


Gurobi 7.0.2 (win64, Python) logging started 06/26/17 15:22:55


Gurobi 7.0.2 (win64, Python) logging started 06/26/17 15:24:36


Gurobi 7.0.2 (win64, Python) logging started 06/26/17 15:33:56


Gurobi 7.0.2 (win64, Python) logging started 06/26/17 15:34:06


Gurobi 7.0.2 (win64, Python) logging started 06/26/17 15:46:19


Gurobi 7.0.2 (win64, Python) logging started 06/26/17 15:48:36


Gurobi 7.0.2 (win64, Python) logging started 06/26/17 15:50:21


Gurobi 7.0.2 (win64, Python) logging started 06/26/17 15:56:23


Gurobi 7.0.2 (win64, Python) logging started 06/26/17 15:56:47


Gurobi 7.0.2 (win64, Python) logging started 06/26/17 16:08:10


Gurobi 7.0.2 (win64, Python) logging started 06/26/17 16:09:36


Gurobi 7.0.2 (win64, Python) logging started 06/26/17 16:10:57


Gurobi 7.0.2 (win64, Python) logging started 06/26/17 16:11:15


Gurobi 7.0.2 (win64, Python) logging started 06/26/17 16:12:02


Gurobi 7.0.2 (win64, Python) logging started 06/26/17 16:12:21


Gurobi 7.0.2 (win64, Python) logging started 06/26/17 16:12:43


Gurobi 7.0.2 (win64, Python) logging started 06/26/17 16:14:36


Gurobi 7.0.2 (win64, Python) logging started 06/26/17 16:15:10


Gurobi 7.0.2 (win64, Python) logging started 06/26/17 16:17:12


Gurobi 7.0.2 (win64, Python) logging started 06/26/17 16:31:22


Gurobi 7.0.2 (win64, Python) logging started 06/26/17 16:31:57


Gurobi 7.0.2 (win64, Python) logging started 06/26/17 16:34:07


Gurobi 7.0.2 (win64, Python) logging started 06/26/17 16:34:21


Gurobi 7.0.2 (win64, Python) logging started 06/26/17 16:35:08


Gurobi 7.0.2 (win64, Python) logging started 06/26/17 16:36:54


Gurobi 7.0.2 (win64, Python) logging started 06/26/17 16:37:06


Gurobi 7.0.2 (win64, Python) logging started 06/26/17 16:37:47


Gurobi 7.0.2 (win64, Python) logging started 06/26/17 16:38:27


Gurobi 7.0.2 (win64, Python) logging started 06/26/17 16:39:30


Gurobi 7.0.2 (win64, Python) logging started 06/26/17 16:40:07


Gurobi 7.0.2 (win64, Python) logging started 06/26/17 16:40:18


Gurobi 7.0.2 (win64, Python) logging started 06/26/17 16:42:13


Gurobi 7.0.2 (win64, Python) logging started 06/26/17 16:42:37


Gurobi 7.0.2 (win64, Python) logging started 06/26/17 16:44:04


Gurobi 7.0.2 (win64, Python) logging started 06/26/17 16:44:13


Gurobi 7.0.2 (win64, Python) logging started 06/26/17 16:45:25


Gurobi 7.0.2 (win64, Python) logging started 06/26/17 16:46:12


Gurobi 7.0.2 (win64, Python) logging started 06/26/17 16:49:07


Gurobi 7.0.2 (win64, Python) logging started 06/26/17 16:50:32


Gurobi 7.0.2 (win64, Python) logging started 06/26/17 16:51:07


Gurobi 7.0.2 (win64, Python) logging started 06/26/17 16:51:36


Gurobi 7.0.2 (win64, Python) logging started 06/26/17 16:52:13


Gurobi 7.0.2 (win64, Python) logging started 06/26/17 16:52:19


Gurobi 7.0.2 (win64, Python) logging started 06/26/17 16:52:24

